solution/p_3_4.txt_600.row.log
CPXPARAM_TimeLimit                               600
CPXPARAM_WorkMem                                 4096
CPXPARAM_Threads                                 1
Found incumbent of value 0,000000 after 0,00 sec. (0,00 ticks)
Tried aggregator 1 time.
MIP Presolve eliminated 5 rows and 22 columns.
MIP Presolve modified 2 coefficients.
Reduced MIP has 10 rows, 20 columns, and 35 nonzeros.
Reduced MIP has 20 binaries, 0 generals, 0 SOSs, and 0 indicators.
Presolve time = 0,00 sec. (0,08 ticks)
Probing time = 0,00 sec. (0,00 ticks)
Tried aggregator 1 time.
MIP Presolve eliminated 10 rows and 20 columns.
MIP Presolve modified 1 coefficients.
All rows and columns eliminated.
Presolve time = 0,00 sec. (0,02 ticks)

Root node processing (before b&c):
  Real time             =    0,00 sec. (2,07 ticks)
Sequential b&c:
  Real time             =    0,00 sec. (0,00 ticks)
                          ------------
Total (root+branch&cut) =    0,00 sec. (2,07 ticks)
